benchmarks_vrp/att48_6.vrp
NAME: att48_6
TYPE: CVRP
COMMENT: (Rinaldi,Yarrow/Araque) - Cluster Nr.6
DIMENSION: 3
CAPACITY: 15
EDGE_WEIGHT_TYPE: ATT
NODE_COORD_TYPE: TWOD_COORDS
NODE_COORD_SECTION: 
1 6823 4674
2 7947 4373
3 9005 3996
DEPOT_SECTION: 
1
-1
DEMAND_SECTION: 
2 1
1 0
3 1
EOF
