benchmarks_vrp/att48_6.tour
NAME: att48_6 solution
TYPE: TOUR
TOUR_SECTION:
1 2 3 -1
-1
EOF